Creating DSP environment
Reading SMPS files: ../SMPS/DCAP/DCAP_3_4_2_200_LP2
Coin0001I At line 1 NAME          DCAP_3_4_2_200_LP2
Coin0001I At line 2 ROWS
Coin0001I At line 24 COLUMNS
Coin0001I At line 101 RHS
Coin0001I At line 112 BOUNDS
Coin0001I At line 151 ENDATA
Coin0002I Problem DCAP_3_4_2_200_LP2 has 20 rows, 44 columns and 77 elements
Coin0001I At line 1 TIME          DCAP_3_4_2_200_LP2
Coin0001I At line 2 PERIODS       IMPLICIT
Coin0001I At line 5 ENDATA

Coin0001I At line 1 STOCH         DCAP_3_4_2_200_LP2
Coin0001I At line 2 SCENARIOS
Coin0001I At line 11347 ENDATA
Read SMPS files: 0.007101 sec.
Reading parameter files: /home/choy/Siplib/experiment/DSP/parameters/de_3h.txt
Invalid parameter format.
CPX0000  CPXPARAM_Advance                                 0
CPX0000  CPXPARAM_TimeLimit                               300
CPX0000  CPXPARAM_Threads                                 1
CPX0000  Found incumbent of value 6007.721366 after 0.00 sec. (0.36 ticks)
CPX0000  Tried aggregator 1 time.
CPX0000  Reduced MIP has 2806 rows, 6412 columns, and 13012 nonzeros.
CPX0000  Reduced MIP has 6 binaries, 0 generals, 0 SOSs, and 0 indicators.
CPX0000  Presolve time = 0.01 sec. (5.84 ticks)
CPX0000  Probing time = 0.00 sec. (0.54 ticks)
CPX0000  Tried aggregator 1 time.
CPX0000  Reduced MIP has 2806 rows, 6412 columns, and 13012 nonzeros.
CPX0000  Reduced MIP has 6 binaries, 0 generals, 0 SOSs, and 0 indicators.
CPX0000  Presolve time = 0.01 sec. (7.32 ticks)
CPX0000  Probing time = 0.00 sec. (0.48 ticks)
CPX0000  MIP emphasis: balance optimality and feasibility.
CPX0000  MIP search method: dynamic search.
CPX0000  Parallel mode: none, using 1 thread.
CPX0000  Root relaxation solution time = 0.05 sec. (69.09 ticks)
CPX0000
CPX0000          Nodes                                         Cuts/
CPX0000     Node  Left     Objective  IInf  Best Integer    Best Bound    ItCnt     Gap
CPX0000
CPX0000  *     0+    0                         6007.7214        0.0000           100.00%
CPX0000        0     0      797.8783     1     6007.7214      797.8783     2305   86.72%
CPX0000  *     0+    0                          799.6374      797.8783             0.22%
CPX0000        0     0      798.1622     1      799.6374     Cuts: 433     2526    0.18%
CPX0000        0     0      798.3849     1      799.6374      Cuts: 78     2578    0.16%
CPX0000        0     0      798.3853     1      799.6374      Cuts: 21     2589    0.16%
CPX0000        0     0      798.3854     1      799.6374    MIRcuts: 1     2590    0.16%
CPX0000        0     2      798.3854     1      799.6374      798.5035     2590    0.14%
CPX0000  Elapsed time = 0.23 sec. (196.74 ticks, tree = 0.01 MB
CPX0000
CPX0000  Implied bound cuts applied:  46
CPX0000  Flow cuts applied:  90
CPX0000  Mixed integer rounding cuts applied:  269
CPX0000  Gomory fractional cuts applied:  2
CPX0000
CPX0000  Root node processing (before b&c):
CPX0000    Real time             =    0.23 sec. (196.90 ticks)
CPX0000  Sequential b&c:
CPX0000    Real time             =    0.00 sec. (2.71 ticks)
CPX0000                            ------------
CPX0000  Total (root+branch&cut) =    0.23 sec. (199.61 ticks)
Status: 3000
Primal Bound: 799.637
Dual Bound  : 799.637
